55
Er@Y13 O42 cluster (Er substitutes central Y of Y13 cluster)
 Y    2.997177    5.303912    7.955868
 Y    5.303912    7.955868    2.997177
 Y    7.610647    5.303912    2.651956
 Y    5.303912    2.651956    7.610647
 Er   5.303912    5.303912    5.303912
 Y    7.955868    2.997177    5.303912
 Y    2.651956    7.610647    5.303912
 Y    2.651956    2.306735    5.303912
 Y    7.955868    8.301089    5.303912
 Y    5.303912    2.651956    2.306735
 Y    2.306735    5.303912    2.651956
 Y    5.303912    7.955868    8.301089
 Y    8.301089    5.303912    7.955868
 O    4.261396    3.810437    9.229444
 O    6.346428    1.493476    9.229444
 O    4.261396    6.797388    6.682293
 O    3.925531    1.042516    6.797388
 O    3.810437    9.229444    4.261396
 O    9.114349    6.682293    6.346428
 O    1.378381    1.042516    3.810437
 O    1.493476    9.229444    6.346428
 O    6.797388    6.682293    4.261396
 O    3.925531    9.565309    9.114349
 O    6.346428    9.114349    6.682293
 O    6.346428    6.797388    1.378381
 O    4.261396    9.114349    1.378381
 O    6.346428    3.810437    3.925531
 O    6.682293    9.565309    3.810437
 O    4.261396    1.493476    3.925531
 O    6.682293    1.042516    1.493476
 O    3.810437    3.925531    6.346428
 O    9.114349    1.378381    4.261396
 O    9.229444    9.565309    6.797388
 O    1.493476    3.925531    4.261396
 O    6.797388    1.378381    6.346428
 O    9.565309    9.114349    3.925531
 O    1.042516    6.797388    3.925531
 O    9.229444    6.346428    1.493476
 O    9.114349    3.925531    9.565309
 O    3.810437    1.378381    1.042516
 O    6.682293    6.346428    9.114349
 O    6.797388    3.925531    1.042516
 O    6.682293    4.261396    6.797388
 O    9.229444    4.261396    3.810437
 O    1.042516    3.810437    1.378381
 O    1.042516    1.493476    6.682293
 O    9.565309    3.810437    6.682293
 O    1.378381    4.261396    9.114349
 O    9.565309    6.797388    9.229444
 O    1.378381    6.346428    6.797388
 O    3.925531    6.346428    3.810437
 O    3.810437    6.682293    9.565309
 O    3.925531    4.261396    1.493476
 O    6.797388    9.229444    9.565309
 O    1.493476    6.682293    1.042516
